p edge 28 168
e 1 6
e 1 15
e 1 16
e 1 20
e 1 21
e 1 28
e 2 1
e 2 5
e 2 11
e 2 18
e 2 24
e 2 27
e 3 2
e 3 6
e 3 7
e 3 8
e 3 24
e 3 26
e 4 7
e 4 17
e 4 18
e 4 21
e 4 24
e 4 28
e 5 8
e 5 9
e 5 18
e 5 20
e 5 23
e 5 27
e 6 9
e 6 9
e 6 10
e 6 10
e 6 19
e 6 19
e 7 5
e 7 10
e 7 13
e 7 14
e 7 18
e 7 20
e 8 6
e 8 17
e 8 18
e 8 25
e 8 26
e 8 27
e 9 2
e 9 3
e 9 4
e 9 13
e 9 18
e 9 22
e 10 1
e 10 11
e 10 15
e 10 19
e 10 24
e 10 24
e 11 8
e 11 13
e 11 15
e 11 15
e 11 25
e 11 27
e 12 5
e 12 5
e 12 8
e 12 14
e 12 23
e 12 24
e 13 1
e 13 5
e 13 8
e 13 9
e 13 16
e 13 18
e 14 7
e 14 8
e 14 12
e 14 19
e 14 19
e 14 26
e 15 1
e 15 6
e 15 7
e 15 11
e 15 16
e 15 22
e 16 1
e 16 9
e 16 18
e 16 19
e 16 21
e 16 26
e 17 7
e 17 12
e 17 14
e 17 14
e 17 21
e 17 22
e 18 4
e 18 12
e 18 13
e 18 16
e 18 23
e 18 26
e 19 2
e 19 6
e 19 12
e 19 18
e 19 20
e 19 20
e 20 6
e 20 6
e 20 16
e 20 22
e 20 23
e 20 25
e 21 1
e 21 12
e 21 13
e 21 16
e 21 23
e 21 24
e 22 4
e 22 4
e 22 5
e 22 11
e 22 12
e 22 26
e 23 4
e 23 11
e 23 25
e 23 25
e 23 25
e 23 25
e 24 4
e 24 5
e 24 6
e 24 10
e 24 12
e 24 19
e 25 7
e 25 8
e 25 12
e 25 20
e 25 22
e 25 26
e 26 1
e 26 3
e 26 9
e 26 11
e 26 14
e 26 17
e 27 5
e 27 9
e 27 11
e 27 17
e 27 21
e 27 22
e 28 4
e 28 4
e 28 8
e 28 8
e 28 8
e 28 9
